nK = 663;
nT = 4;
nI = 7;
L = 35;
TT = 142;
np = 1;
nc = 3;
b = [29, 34, 62, 32, 31, 53, 51];
d = [54, 143, 104, 104, 139, 124, 78];
m = [2.5, 2.5, 2.1, 1.9, 1.5, 2.1, 2];
pt = [0.35, 0.27, 0.2, 0.27];
st = [20.3, 12.15, 9.4, 14.85];
arc = {<1, 0, 1, 1, 0, 0, 0, [1, 1, 1, 1]>, <2, 1, 2, 1, 0, 0, 0, [1, 1, 1, 1]>, <3, 2, 3, 1, 0, 0, 0, [1, 1, 1, 1]>, <4, 3, 4, 1, 0, 0, 0, [1, 1, 1, 1]>, <5, 4, 5, 1, 0, 0, 0, [1, 1, 1, 1]>, <6, 5, 6, 1, 0, 0, 0, [1, 1, 1, 1]>, <7, 6, 7, 1, 0, 0, 0, [1, 1, 1, 1]>, <8, 7, 8, 1, 0, 0, 0, [1, 1, 1, 1]>, <9, 8, 9, 1, 0, 0, 0, [1, 1, 1, 1]>, <10, 9, 10, 1, 0, 0, 0, [1, 1, 1, 1]>, <11, 10, 11, 1, 0, 0, 0, [1, 1, 1, 1]>, <12, 11, 12, 1, 0, 0, 0, [1, 1, 1, 1]>, <13, 12, 13, 1, 0, 0, 0, [1, 1, 1, 1]>, <14, 13, 14, 1, 0, 0, 0, [1, 1, 1, 1]>, <15, 14, 15, 1, 0, 0, 0, [1, 1, 1, 1]>, <16, 15, 16, 1, 0, 0, 0, [1, 1, 1, 1]>, <17, 16, 17, 1, 0, 0, 0, [1, 1, 1, 1]>, <18, 17, 18, 1, 0, 0, 0, [1, 1, 1, 1]>, <19, 18, 19, 1, 0, 0, 0, [1, 1, 1, 1]>, <20, 19, 20, 1, 0, 0, 0, [1, 1, 1, 1]>, <21, 20, 21, 1, 0, 0, 0, [1, 1, 1, 1]>, <22, 21, 22, 1, 0, 0, 0, [1, 1, 1, 1]>, <23, 22, 23, 1, 0, 0, 0, [1, 1, 1, 1]>, <24, 23, 24, 1, 0, 0, 0, [1, 1, 1, 1]>, <25, 24, 25, 1, 0, 0, 0, [1, 1, 1, 1]>, <26, 25, 26, 1, 0, 0, 0, [1, 1, 1, 1]>, <27, 26, 27, 1, 0, 0, 0, [1, 1, 1, 1]>, <28, 27, 28, 1, 0, 0, 0, [1, 1, 1, 1]>, <29, 28, 29, 1, 0, 0, 0, [1, 1, 1, 1]>, <30, 29, 30, 1, 0, 0, 0, [1, 1, 1, 1]>, <31, 30, 31, 1, 0, 0, 0, [1, 1, 1, 1]>, <32, 31, 32, 1, 0, 0, 0, [1, 1, 1, 1]>, <33, 32, 33, 1, 0, 0, 0, [1, 1, 1, 1]>, <34, 33, 34, 1, 0, 0, 0, [1, 1, 1, 1]>, <35, 34, 35, 1, 0, 0, 0, [1, 1, 1, 1]>, <36, 5, 14, 9, 1, 0, 0, [0, 1, 1, 1]>, <37, 6, 15, 9, 1, 0, 0, [0, 1, 1, 1]>, <38, 14, 23, 9, 1, 0, 0, [0, 1, 1, 1]>, <39, 15, 24, 9, 1, 0, 0, [0, 1, 1, 1]>, <40, 22, 31, 9, 1, 0, 0, [0, 1, 1, 1]>, <41, 23, 32, 9, 1, 0, 0, [0, 1, 1, 1]>, <42, 24, 33, 9, 1, 0, 0, [0, 1, 1, 1]>, <43, 4, 17, 13, 2, 0, 1, [1, 1, 1, 0]>, <44, 5, 18, 13, 2, 0, 1, [1, 1, 1, 0]>, <45, 6, 19, 13, 2, 0, 1, [1, 1, 1, 0]>, <46, 13, 26, 13, 2, 0, 1, [1, 1, 1, 0]>, <47, 14, 27, 13, 2, 0, 1, [1, 1, 1, 0]>, <48, 15, 28, 13, 2, 0, 1, [1, 1, 1, 0]>, <49, 18, 31, 13, 2, 0, 1, [1, 1, 1, 0]>, <50, 19, 32, 13, 2, 0, 1, [1, 1, 1, 0]>, <51, 20, 33, 13, 2, 0, 1, [1, 1, 1, 0]>, <52, 21, 34, 13, 2, 0, 1, [1, 1, 1, 0]>, <53, 22, 35, 13, 2, 0, 1, [1, 1, 1, 0]>, <54, 5, 16, 11, 3, 1, 0, [1, 0, 1, 1]>, <55, 6, 17, 11, 3, 1, 0, [1, 0, 1, 1]>, <56, 14, 25, 11, 3, 1, 0, [1, 0, 1, 1]>, <57, 15, 26, 11, 3, 1, 0, [1, 0, 1, 1]>, <58, 20, 31, 11, 3, 1, 0, [1, 0, 1, 1]>, <59, 21, 32, 11, 3, 1, 0, [1, 0, 1, 1]>, <60, 22, 33, 11, 3, 1, 0, [1, 0, 1, 1]>, <61, 23, 34, 11, 3, 1, 0, [1, 0, 1, 1]>, <62, 24, 35, 11, 3, 1, 0, [1, 0, 1, 1]>, <63, 5, 14, 9, 4, 1, 0, [1, 1, 1, 0]>, <64, 6, 15, 9, 4, 1, 0, [1, 1, 1, 0]>, <65, 14, 23, 9, 4, 1, 0, [1, 1, 1, 0]>, <66, 15, 24, 9, 4, 1, 0, [1, 1, 1, 0]>, <67, 22, 31, 9, 4, 1, 0, [1, 1, 1, 0]>, <68, 23, 32, 9, 4, 1, 0, [1, 1, 1, 0]>, <69, 24, 33, 9, 4, 1, 0, [1, 1, 1, 0]>, <70, 3, 17, 14, 5, 1, 0, [1, 1, 1, 0]>, <71, 4, 18, 14, 5, 1, 0, [1, 1, 1, 0]>, <72, 5, 19, 14, 5, 1, 0, [1, 1, 1, 0]>, <73, 6, 20, 14, 5, 1, 0, [1, 1, 1, 0]>, <74, 12, 26, 14, 5, 1, 0, [1, 1, 1, 0]>, <75, 13, 27, 14, 5, 1, 0, [1, 1, 1, 0]>, <76, 14, 28, 14, 5, 1, 0, [1, 1, 1, 0]>, <77, 15, 29, 14, 5, 1, 0, [1, 1, 1, 0]>, <78, 17, 31, 14, 5, 1, 0, [1, 1, 1, 0]>, <79, 18, 32, 14, 5, 1, 0, [1, 1, 1, 0]>, <80, 19, 33, 14, 5, 1, 0, [1, 1, 1, 0]>, <81, 20, 34, 14, 5, 1, 0, [1, 1, 1, 0]>, <82, 21, 35, 14, 5, 1, 0, [1, 1, 1, 0]>, <83, 5, 16, 11, 6, 0, 0, [1, 1, 1, 0]>, <84, 6, 17, 11, 6, 0, 0, [1, 1, 1, 0]>, <85, 14, 25, 11, 6, 0, 0, [1, 1, 1, 0]>, <86, 15, 26, 11, 6, 0, 0, [1, 1, 1, 0]>, <87, 20, 31, 11, 6, 0, 0, [1, 1, 1, 0]>, <88, 21, 32, 11, 6, 0, 0, [1, 1, 1, 0]>, <89, 22, 33, 11, 6, 0, 0, [1, 1, 1, 0]>, <90, 23, 34, 11, 6, 0, 0, [1, 1, 1, 0]>, <91, 24, 35, 11, 6, 0, 0, [1, 1, 1, 0]>, <92, 4, 17, 13, 7, 0, 0, [1, 0, 1, 1]>, <93, 5, 18, 13, 7, 0, 0, [1, 0, 1, 1]>, <94, 6, 19, 13, 7, 0, 0, [1, 0, 1, 1]>, <95, 13, 26, 13, 7, 0, 0, [1, 0, 1, 1]>, <96, 14, 27, 13, 7, 0, 0, [1, 0, 1, 1]>, <97, 15, 28, 13, 7, 0, 0, [1, 0, 1, 1]>, <98, 18, 31, 13, 7, 0, 0, [1, 0, 1, 1]>, <99, 19, 32, 13, 7, 0, 0, [1, 0, 1, 1]>, <100, 20, 33, 13, 7, 0, 0, [1, 0, 1, 1]>, <101, 21, 34, 13, 7, 0, 0, [1, 0, 1, 1]>, <102, 22, 35, 13, 7, 0, 0, [1, 0, 1, 1]>};
